
(set-logic ALL) 

(declare-datatype MyList ((Nil) (Cons (head Real) (tail MyList)) )) 
(declare-fun l0 () MyList) 
(declare-fun l1 () MyList) 
(declare-fun l2 () MyList) 
(declare-fun l3 () MyList) 
(declare-fun i0 () Real) 
(declare-fun i1 () Real) 
(assert (and (= l0 Nil) (is-Nil l2)) )
(assert (not (is-Nil Nil)) )
(assert (is-Nil Nil) )
(assert (is-Cons Nil) )
(assert (is-Cons Nil) )
(assert (is-Cons Nil) )
(assert (or (is-Cons Nil) (= l0 Nil)) )
(assert (not (= l3 Nil)) )
(check-sat)
